NAME : optical-integer.pruned_local_4.0.tour
COMMENT : Length = 0
TYPE : TOUR
DIMENSION : 174
TOUR_SECTION
1
3
4
6
5
37
38
36
35
34
33
131
20
22
24
26
28
30
32
31
29
27
99
25
23
21
19
18
17
16
15
14
13
12
11
9
8
7
174
10
169
59
61
63
65
67
69
71
73
75
77
79
81
83
85
84
82
80
78
76
74
72
70
68
66
64
62
60
58
57
173
146
145
144
148
149
150
151
152
153
154
156
157
155
158
159
161
166
170
127
171
172
168
167
163
162
164
160
165
122
126
124
123
125
129
130
134
133
132
135
137
139
141
143
147
142
140
138
136
128
121
120
117
119
116
115
114
102
113
103
108
107
101
118
100
111
112
110
106
105
109
104
98
96
95
94
93
92
91
97
56
48
42
44
46
49
51
88
90
89
87
86
54
55
53
52
50
47
45
43
41
40
39
2
-1
EOF
